c .nnodes 80
c .nvars 103
c .nsuppvars 68
c .ids  0 1 2 3 4 5 6 7 8 9 10 11 12 13 14 15 16 17 18 19 20 21 22 23 24 25 26 27 28 29 30 31 32 33 34 35 36 37 38 39 40 41 42 43 44 45 46 47 48 49 50 51 52 53 54 55 56 57 58 59 60 61 62 63 64 65 66 67 
c .cnfids  216 244 246 245 247 219 222 280 238 240 241 242 218 248 221 223 256 239 220 224 217 283 282 225 253 276 231 232 233 243 257 229 234 227 266 235 270 230 258 228 237 269 252 255 268 236 267 250 226 251 261 254 265 262 263 249 277 279 278 260 275 271 274 272 273 259 264 281 
c .nroots 1
c .rootids 2
p cnf 319 1005
3 282 4 -193 -200 0
3 -282 -4 -193 -200 0
-3 200 0
-3 -282 4 0
-3 193 0
-3 282 -4 0
4 283 -189 0
4 -283 5 -75 0
-4 -283 -5 0
-4 283 189 0
-4 -283 75 0
5 -6 67 0
5 -67 74 0
5 67 -68 0
-5 -67 -74 0
-5 6 67 68 0
6 -7 53 54 0
6 47 53 54 0
-6 -54 0
-6 -53 0
-6 7 -47 0
7 14 41 -42 0
7 8 14 41 0
-7 -41 0
-7 -14 0
-7 -8 42 0
8 271 272 273 -9 0
-8 9 0
-8 -273 0
-8 -271 0
-8 -272 0
9 10 -12 0
-9 -10 0
-9 12 0
10 272 -274 0
10 -272 274 11 0
10 -271 272 -11 0
-10 -272 -11 0
-10 272 274 11 0
-10 -272 -274 0
-10 271 274 -11 0
11 273 -275 0
-11 -273 0
-11 275 0
12 -273 274 -275 0
12 273 275 13 0
12 273 -274 -275 0
12 274 -275 -13 0
-12 -273 -274 0
-12 273 274 -275 13 0
-12 -273 275 0
-12 275 -13 0
13 271 272 0
-13 -271 0
-13 -272 0
14 20 8 35 0
14 15 20 8 0
-14 -8 0
-14 -20 0
-14 -15 -35 0
15 10 12 -16 0
-15 16 0
-15 -12 0
-15 -10 0
16 17 -18 0
-16 -17 0
-16 18 0
17 -273 -274 0
-17 273 0
-17 274 0
18 -271 -19 0
-18 271 0
-18 19 0
19 -272 -273 0
19 -272 -275 0
19 -272 -274 0
-19 272 0
-19 273 274 275 0
20 26 15 -33 0
20 21 26 15 0
-20 -15 0
-20 -26 0
-20 -21 33 0
21 22 -24 -9 0
-21 9 0
-21 24 0
-21 -22 0
22 -271 -23 0
22 271 23 0
-22 271 -23 0
-22 -271 23 0
23 273 -274 0
23 272 273 0
23 273 -275 0
23 -272 -273 274 0
-23 272 -273 0
-23 -273 -274 0
-23 -272 273 274 275 0
24 25 18 0
-24 -25 0
-24 -18 0
25 271 17 0
25 271 272 0
-25 -271 0
-25 -272 -17 0
26 226 -28 21 0
26 -27 28 21 0
-26 -21 0
-26 -226 -28 0
-26 27 28 0
27 -226 -259 0
27 226 259 0
-27 226 -259 0
-27 -226 259 0
28 -265 -29 0
-28 265 0
-28 29 0
29 -30 -31 0
-29 30 0
-29 31 0
30 -10 -12 0
-30 10 0
-30 12 0
31 -23 -32 0
-31 23 0
-31 32 0
32 271 -272 17 0
32 271 272 -273 0
-32 -271 0
-32 -272 -17 0
-32 272 273 0
33 -226 -34 0
33 27 34 0
-33 -27 34 0
-33 226 -34 0
34 265 -266 0
-34 -265 0
-34 266 0
35 36 39 0
35 226 39 0
35 -226 36 -38 0
-35 -226 -36 0
-35 226 -39 0
-35 38 -39 0
36 -252 -37 0
-36 252 0
-36 37 0
37 -251 -259 -281 0
37 -251 -259 -264 0
-37 251 0
-37 259 0
-37 264 281 0
38 281 -37 0
38 264 -37 0
-38 37 0
-38 -264 -281 0
39 -27 40 0
39 -37 40 0
-39 -40 0
-39 27 37 0
40 281 -36 0
40 264 -36 0
-40 36 0
-40 -264 -281 0
41 271 -272 -17 0
-41 17 0
-41 272 0
-41 -271 0
42 -226 -45 0
42 27 43 0
42 43 -45 0
42 -226 27 0
-42 -27 45 0
-42 226 -43 0
43 -277 278 -279 44 0
-43 279 0
-43 -44 0
-43 277 0
-43 -278 0
44 255 -264 0
44 -255 264 0
-44 -255 -264 0
-44 255 264 0
45 -277 278 -279 -46 0
-45 46 0
-45 277 0
-45 279 0
-45 -278 0
46 255 264 0
-46 -255 0
-46 -264 0
47 48 51 0
47 226 48 -50 0
-47 -48 0
-47 -226 -51 0
-47 50 -51 0
48 -10 12 -49 0
-48 10 0
-48 -12 0
-48 49 0
49 23 -32 0
-49 -23 0
-49 32 0
50 277 278 -279 44 0
-50 -277 0
-50 -44 0
-50 279 0
-50 -278 0
51 27 -41 0
51 -41 -52 0
-51 41 0
-51 -27 52 0
52 277 278 -279 -46 0
-52 -277 0
-52 46 0
-52 279 0
-52 -278 0
53 -31 -9 0
-53 31 0
-53 9 0
54 -48 -57 0
54 -27 -48 55 0
-54 48 0
-54 -55 57 0
-54 27 57 0
55 277 -278 279 -56 0
-55 278 0
-55 -279 0
-55 -277 0
-55 56 0
56 249 264 -281 0
-56 281 0
-56 -264 0
-56 -249 0
57 -58 -65 0
57 260 -58 60 0
-57 58 0
-57 -260 65 0
-57 -60 65 0
58 277 -278 279 59 0
-58 278 0
-58 -59 0
-58 -277 0
-58 -279 0
59 249 -264 0
59 -249 264 0
59 249 281 0
-59 -249 -264 0
-59 249 264 -281 0
60 226 27 0
60 -61 64 0
60 27 64 0
60 226 -61 0
-60 -226 -64 0
-60 -27 61 0
61 -250 -62 0
61 -62 63 0
-61 62 0
-61 250 -63 0
62 260 -262 0
-62 -260 0
-62 262 0
63 -263 -281 0
63 263 281 0
-63 263 -281 0
-63 -263 281 0
64 -250 -62 0
64 -263 -62 0
64 -281 -62 0
-64 62 0
-64 250 263 281 0
65 -260 261 66 0
65 -260 -261 -27 0
-65 260 0
-65 -261 27 0
-65 261 -66 0
66 226 -263 281 0
66 263 281 27 0
66 226 27 0
66 226 263 -281 0
-66 -226 -263 0
-66 -263 -281 -27 0
-66 -226 -281 0
-66 263 281 -27 0
67 -30 -22 -24 0
-67 30 0
-67 22 0
-67 24 0
68 27 -53 71 0
68 -53 -69 71 0
-68 53 0
-68 -71 0
-68 -27 69 0
69 -56 -70 0
-69 56 0
-69 70 0
70 254 -277 278 279 0
-70 277 0
-70 -279 0
-70 -254 0
-70 -278 0
71 -27 72 -73 0
71 66 -72 -73 0
-71 73 0
-71 -66 -72 0
-71 27 72 0
72 -260 261 0
-72 260 0
-72 -261 0
73 59 -70 0
-73 -59 0
-73 70 0
74 226 -253 0
74 253 -27 0
-74 -226 -253 0
-74 253 27 0
75 -76 144 164 -180 0
-75 180 0
-75 -164 0
-75 76 0
-75 -144 0
76 77 -92 121 132 0
-76 92 0
-76 -132 0
-76 -77 0
-76 -121 0
77 -53 -78 0
77 53 -88 0
77 53 -83 0
-77 -53 78 0
-77 53 83 88 0
78 229 79 0
78 -80 82 0
78 79 82 0
78 229 -80 0
-78 -229 -82 0
-78 -79 80 0
79 -229 -262 0
79 229 262 0
-79 229 -262 0
-79 -229 262 0
80 -69 -81 0
-80 69 0
-80 81 0
81 259 260 0
-81 -259 0
-81 -260 0
82 -73 -81 0
-82 73 0
-82 81 0
83 48 84 -87 0
83 8 48 84 0
-83 -84 0
-83 -48 0
-83 -8 87 0
84 229 8 -85 0
84 8 -79 85 0
-84 -8 0
-84 -229 -85 0
-84 79 85 0
85 -257 -86 0
-85 257 0
-85 86 0
86 -9 -49 0
-86 9 0
-86 49 0
87 -229 79 0
87 43 -45 0
87 43 79 0
87 -229 -45 0
-87 229 -43 0
-87 45 -79 0
88 229 -48 89 0
88 -48 89 91 0
-88 48 0
-88 -89 0
-88 -229 -91 0
89 -79 90 0
-89 79 0
-89 -90 0
90 -55 -81 0
-90 55 0
-90 81 0
91 -58 -81 0
-91 58 0
-91 81 0
92 48 100 -102 0
92 -48 93 -102 0
-92 102 0
-92 48 -100 0
-92 -48 -93 0
93 94 -96 0
93 64 94 0
93 91 94 0
-93 -94 0
-93 -64 -91 96 0
94 90 95 0
94 -58 61 95 0
-94 -95 0
-94 -61 -90 0
-94 58 -90 0
95 243 -276 0
95 -243 276 0
-95 -243 -276 0
-95 243 276 0
96 63 -98 0
96 -250 97 -98 0
-96 98 0
-96 -63 -97 0
-96 250 -63 0
97 -267 -281 0
-97 267 0
-97 281 0
98 -243 -99 0
98 243 99 0
-98 243 -99 0
-98 -243 99 0
99 263 -281 0
-99 -263 0
-99 281 0
100 15 -95 0
100 -15 -40 101 0
100 -95 101 0
-100 -15 -101 0
-100 15 95 0
-100 40 95 0
101 -243 -36 0
101 -269 -281 -36 0
-101 36 0
-101 243 281 0
-101 243 269 0
102 -21 105 -112 0
102 -103 105 -112 0
-102 112 0
-102 -105 0
-102 21 103 0
103 28 104 0
103 232 233 -28 0
-103 28 -104 0
-103 -232 -28 0
-103 -233 -28 0
104 -232 265 0
104 232 -233 266 0
104 232 -265 0
104 233 265 -266 0
-104 -232 -265 0
-104 232 -233 265 -266 0
-104 232 233 265 266 0
105 -53 82 106 0
105 -53 106 111 0
-105 53 0
-105 -106 0
-105 -82 -111 0
106 107 -109 0
106 80 107 -108 0
-106 -107 0
-106 -80 109 0
-106 108 109 0
107 230 -263 0
107 -230 263 0
-107 -230 -263 0
-107 230 263 0
108 -235 -268 0
108 235 268 0
-108 235 -268 0
-108 -235 268 0
109 -235 260 -110 0
-109 235 0
-109 -260 0
-109 110 0
110 -262 -82 0
-110 262 0
-110 82 0
111 230 281 62 -108 0
111 -230 -281 62 -108 0
-111 -62 0
-111 230 -281 0
-111 108 0
-111 -230 281 0
112 113 114 -118 -119 0
-112 -113 0
-112 119 0
-112 118 0
-112 -114 0
113 232 -233 -21 0
113 -232 265 -21 0
113 232 -265 -21 0
-113 21 0
-113 -232 -265 0
-113 232 233 265 0
114 -53 -80 116 0
114 -53 115 116 0
-114 53 0
-114 -116 0
-114 80 -115 0
115 -236 -269 0
115 236 269 0
-115 236 -269 0
-115 -236 269 0
116 62 -82 -115 0
116 -62 -82 -117 0
-116 82 0
-116 -62 117 0
-116 62 115 0
117 -236 -267 0
117 -236 281 0
117 236 267 -281 0
-117 236 -267 0
-117 236 281 0
-117 -236 267 -281 0
118 -225 231 -258 264 0
118 225 -231 258 -264 0
118 225 231 258 264 0
118 -225 -231 -258 -264 0
-118 -225 258 0
-118 225 -258 0
-118 231 -264 0
-118 -231 264 0
119 267 -120 0
119 281 -120 0
119 -250 -120 0
-119 120 0
-119 250 -267 -281 0
120 269 -282 0
120 281 -282 0
120 -252 -282 0
-120 282 0
-120 252 -269 -281 0
121 -53 -122 0
121 53 -130 0
121 53 -124 0
-121 -53 122 0
-121 53 124 130 0
122 110 123 0
122 -281 123 0
122 234 123 0
-122 -123 0
-122 -234 281 -110 0
123 -234 -267 0
123 234 267 0
-123 234 -267 0
-123 -234 267 0
124 48 125 128 0
124 29 48 125 0
-124 -125 0
-124 -48 0
-124 -29 -128 0
125 234 29 -126 0
125 29 -123 126 0
-125 -29 0
-125 -234 -126 0
-125 123 126 0
126 281 -127 0
-126 -281 0
-126 127 0
127 -254 -268 -30 -16 0
-127 16 0
-127 254 0
-127 30 0
-127 268 0
128 -123 129 0
128 -234 -129 0
-128 123 129 0
-128 234 -129 0
129 258 -265 0
-129 -258 0
-129 265 0
130 -234 -48 131 0
130 -48 91 131 0
-130 48 0
-130 -131 0
-130 234 -91 0
131 90 -123 0
-131 -90 0
-131 123 0
132 53 133 -139 0
132 48 53 133 0
-132 -133 0
-132 -53 0
-132 -48 139 0
133 48 134 138 0
133 15 48 134 0
-133 -134 0
-133 -48 0
-133 -15 -138 0
134 -29 15 136 0
134 29 15 -135 0
-134 -15 0
-134 -29 -136 0
-134 29 135 0
135 -281 115 0
135 115 127 0
135 -236 281 -127 0
-135 -281 -115 0
-135 -115 127 0
-135 236 281 -127 0
136 -265 137 0
136 -115 137 0
-136 -137 0
-136 265 115 0
137 236 -265 -267 0
137 236 258 -265 0
137 -236 -258 -265 267 0
-137 -236 258 0
-137 236 -258 267 0
-137 265 0
-137 -236 -267 0
138 37 115 0
138 -281 115 0
138 -236 281 -37 0
-138 37 -115 0
-138 -281 -115 0
-138 236 281 -37 0
139 -90 140 0
139 115 140 0
-139 -140 0
-139 90 -115 0
140 61 -143 0
140 141 -143 0
140 -236 -143 0
-140 143 0
-140 236 -61 -141 0
141 263 -142 0
141 -267 -268 -142 0
-141 142 0
-141 -263 267 0
-141 -263 268 0
142 -264 -281 0
-142 264 0
-142 281 0
143 236 -91 0
143 -64 -91 -141 0
-143 91 0
-143 -236 141 0
-143 -236 64 0
144 -145 149 0
144 -147 149 0
144 48 149 0
-144 -149 0
-144 -48 145 147 0
145 -90 91 0
145 -228 146 0
145 -228 -90 0
145 91 146 0
-145 90 -146 0
-145 228 -91 0
146 -228 -261 0
146 228 261 0
-146 228 -261 0
-146 -228 261 0
147 227 -90 0
147 91 148 0
147 -90 91 0
147 227 148 0
-147 90 -148 0
-147 -227 -91 0
148 -227 -260 0
148 227 260 0
-148 227 -260 0
-148 -227 260 0
149 -41 48 -160 0
149 48 -150 -160 0
-149 160 0
-149 -48 0
-149 41 150 0
150 151 152 157 158 0
-150 -158 0
-150 -157 0
-150 -151 0
-150 -152 0
151 28 86 148 0
151 -227 -28 86 0
-151 -86 0
-151 227 -28 0
-151 28 -148 0
152 8 153 155 0
152 15 8 153 0
-152 -153 0
-152 -8 0
-152 -15 -155 0
153 -146 154 0
-153 146 0
-153 -154 0
154 -15 36 0
-154 15 0
-154 -36 0
155 40 -156 0
155 38 40 -146 0
-155 -40 0
-155 -38 156 0
-155 146 156 0
156 228 260 -37 0
156 228 261 -37 0
156 -228 -260 -261 -37 0
-156 -228 260 0
-156 228 -260 -261 0
-156 37 0
-156 -228 261 0
157 257 -86 148 0
157 -227 -257 -86 0
-157 86 0
-157 227 -257 0
-157 257 -148 0
158 228 -8 159 0
158 -8 43 159 0
-158 8 0
-158 -159 0
-158 -228 -43 0
159 45 -146 0
-159 -45 0
-159 146 0
160 161 163 0
160 -228 -50 161 0
-160 -161 0
-160 228 -163 0
-160 50 -163 0
161 -227 -41 162 0
161 -41 50 162 0
-161 41 0
-161 -162 0
-161 227 -50 0
162 52 -148 0
-162 -52 0
-162 148 0
163 -41 -52 0
163 -41 146 0
-163 41 0
-163 52 -146 0
164 -53 -165 0
164 53 -177 0
164 53 -170 0
-164 -53 165 0
-164 53 170 177 0
165 166 169 0
165 -69 -167 0
165 166 -167 0
-165 69 -166 0
-165 167 -169 0
-165 -166 167 0
166 -237 -270 0
166 237 270 0
-166 237 -270 0
-166 -237 270 0
167 259 -260 261 -168 0
-167 260 0
-167 -261 0
-167 -259 0
-167 168 0
168 -237 263 -281 0
168 263 281 166 0
168 -237 166 0
168 -237 -263 281 0
-168 237 -281 0
-168 -263 -281 -166 0
-168 237 -263 0
-168 263 281 -166 0
169 259 -260 261 -73 0
-169 260 0
-169 -261 0
-169 -259 0
-169 73 0
170 -48 -55 171 0
170 -48 166 171 0
-170 48 0
-170 -171 0
-170 55 -166 0
171 -58 -172 0
171 -58 -175 0
171 -58 -174 0
-171 58 0
-171 172 174 175 0
172 -260 261 -173 0
172 -260 -261 -166 0
-172 260 0
-172 -261 166 0
-172 261 173 0
173 259 168 0
-173 -259 0
-173 -168 0
174 -259 -166 0
-174 259 0
-174 166 0
175 260 -176 0
175 260 61 -166 0
-175 -260 0
-175 -61 176 0
-175 166 176 0
176 -237 259 -64 0
-176 237 0
-176 -259 0
-176 64 0
177 48 -154 178 0
177 48 166 178 0
-177 -48 0
-177 -178 0
-177 154 -166 0
178 -15 40 179 0
-178 15 0
-178 -179 0
-178 -40 0
179 37 166 0
179 -237 166 0
179 -237 -37 142 0
-179 237 -37 0
-179 37 -166 0
-179 -142 -166 0
180 -53 0
180 -181 -184 0
180 -181 -187 0
-180 53 181 0
-180 53 184 187 0
181 182 183 0
181 48 182 0
-181 -182 0
-181 -48 -183 0
182 235 -28 48 0
182 28 48 108 0
-182 -48 0
-182 28 -108 0
-182 -235 -28 0
183 -90 91 0
183 -235 108 0
183 -235 -90 0
183 91 108 0
-183 90 -108 0
-183 235 -91 0
184 48 -185 -186 0
184 48 107 185 0
-184 -48 0
-184 -107 185 0
-184 -185 186 0
185 -260 265 -266 -21 0
-185 21 0
-185 260 0
-185 266 0
-185 -265 0
186 -230 -258 0
186 230 258 0
-186 230 -258 0
-186 -230 258 0
187 -48 -188 0
187 -48 90 107 0
-187 48 0
-187 -90 188 0
-187 -107 188 0
188 -230 -281 -91 0
188 230 281 -91 0
-188 91 0
-188 -230 281 0
-188 230 -281 0
189 230 231 -190 -192 0
189 -230 -231 -190 -192 0
-189 192 0
-189 -230 231 0
-189 190 0
-189 230 -231 0
190 232 233 -191 0
-190 191 0
-190 -233 0
-190 -232 0
191 226 227 228 229 0
-191 -229 0
-191 -228 0
-191 -226 0
-191 -227 0
192 234 235 236 237 0
-192 -237 0
-192 -236 0
-192 -234 0
-192 -235 0
193 -194 -195 -196 -199 0
-193 199 0
-193 194 0
-193 196 0
-193 195 0
194 -216 244 -249 277 0
194 216 -244 249 -277 0
194 216 244 249 277 0
194 -216 -244 -249 -277 0
-194 -216 249 0
-194 216 -249 0
-194 244 -277 0
-194 -244 277 0
195 -232 246 -265 279 0
195 232 -246 265 -279 0
195 232 246 265 279 0
195 -232 -246 -265 -279 0
-195 -232 265 0
-195 232 -265 0
-195 246 -279 0
-195 -246 279 0
196 -27 -197 -148 198 0
-196 148 0
-196 -198 0
-196 27 0
-196 197 0
197 -233 -266 0
197 233 266 0
-197 233 -266 0
-197 -233 266 0
198 219 -252 0
198 -219 252 0
-198 -219 -252 0
-198 219 252 0
199 95 -108 -146 -166 0
-199 -95 0
-199 166 0
-199 146 0
-199 108 0
200 -118 -201 -204 -212 0
-200 212 0
-200 118 0
-200 204 0
-200 201 0
201 245 278 -202 -203 0
201 -245 -278 -202 -203 0
-201 203 0
-201 -245 278 0
-201 202 0
-201 245 -278 0
202 -217 247 280 0
202 -247 250 -280 0
202 -217 -247 -280 0
202 247 250 280 0
-202 247 -280 0
-202 -247 280 0
-202 217 -250 0
203 -222 -255 0
203 222 255 0
-203 222 -255 0
-203 -222 255 0
204 -205 -208 -210 -211 0
-204 211 0
-204 205 0
-204 210 0
-204 208 0
205 239 206 -207 0
205 -272 206 -207 0
-205 207 0
-205 -206 0
-205 -239 272 0
206 224 -257 0
-206 -224 0
-206 257 0
207 -220 -250 0
207 217 253 0
207 217 -220 0
207 -250 253 0
-207 -217 250 0
-207 220 -253 0
208 -239 -283 -209 0
208 272 -283 -209 0
-208 209 0
-208 283 0
-208 239 -272 0
209 220 224 0
209 -253 -257 0
209 220 -257 0
209 224 -253 0
-209 -220 253 0
-209 -224 257 0
210 -221 248 -254 281 0
210 221 -248 254 -281 0
210 221 248 254 281 0
210 -221 -248 -254 -281 0
-210 -221 254 0
-210 221 -254 0
-210 248 -281 0
-210 -248 281 0
211 -218 238 -251 271 0
211 218 -238 251 -271 0
211 218 238 251 271 0
211 -218 -238 -251 -271 0
-211 -218 251 0
-211 218 -251 0
-211 238 -271 0
-211 -238 271 0
212 -79 107 -213 -214 0
-212 214 0
-212 79 0
-212 213 0
-212 -107 0
213 -242 -275 -115 0
213 242 275 -115 0
-213 115 0
-213 -242 275 0
-213 242 -275 0
214 241 274 -123 -215 0
214 -241 -274 -123 -215 0
-214 215 0
-214 -241 274 0
-214 123 0
-214 241 -274 0
215 -223 240 -256 273 0
215 223 -240 256 -273 0
215 223 240 256 273 0
215 -223 -240 -256 -273 0
-215 -223 256 0
-215 223 -256 0
-215 240 -273 0
-215 -240 273 0
319 0
2 3 0
-2 -3 0
2 0

